; benchmark generated from python API
(set-info :status unknown)
(declare-fun x_epoch () (_ BitVec 32))
(declare-fun y_epoch () (_ BitVec 32))
(declare-fun x_plus_epoch () (_ BitVec 32))
(declare-fun x_plus_month () (_ BitVec 32))
(declare-fun x_plus_year () (_ BitVec 32))
(declare-fun x_plus_day () (_ BitVec 32))
(assert
 (bvsle (_ bv4294930771 32) x_epoch))
(assert
 (bvsge (_ bv36523 32) x_epoch))
(assert
 (bvsle (_ bv4294930771 32) y_epoch))
(assert
 (bvsge (_ bv36523 32) y_epoch))
(assert
 (= x_epoch (_ bv7990 32)))
(assert
 (bvsle (_ bv4294930771 32) x_plus_epoch))
(assert
 (bvsge (_ bv36523 32) x_plus_epoch))
(assert
 (let (($x3631 (= x_plus_month (_ bv11 32))))
 (let (($x3774 (= x_plus_month (_ bv9 32))))
 (let (($x3540 (= x_plus_month (_ bv6 32))))
 (let (($x1963 (= x_plus_month (_ bv4 32))))
 (let ((?x3124 (ite (or $x1963 $x3540 $x3774 $x3631) (_ bv30 32) (_ bv31 32))))
 (let (($x3095 (and (= (bvsmod x_plus_year (_ bv4 32)) (_ bv0 32)) (and (distinct (bvsmod x_plus_year (_ bv100 32)) (_ bv0 32)) true))))
 (let (($x2846 (or $x3095 (= (bvsmod x_plus_year (_ bv400 32)) (_ bv0 32)))))
 (let (($x3000 (= x_plus_month (_ bv2 32))))
 (let (($x1455 (bvsle (_ bv1 32) x_plus_day)))
 (let (($x3017 (bvsle (_ bv1 32) x_plus_month)))
 (let (($x2684 (bvsle (_ bv1900 32) x_plus_year)))
 (and $x2684 (bvsge (_ bv2100 32) x_plus_year) $x3017 (bvsge (_ bv12 32) x_plus_month) $x1455 (bvsle x_plus_day (ite $x3000 (ite $x2846 (_ bv29 32) (_ bv28 32)) ?x3124)))))))))))))))
(assert
 (let (($x3095 (and (= (bvsmod x_plus_year (_ bv4 32)) (_ bv0 32)) (and (distinct (bvsmod x_plus_year (_ bv100 32)) (_ bv0 32)) true))))
 (let (($x2846 (or $x3095 (= (bvsmod x_plus_year (_ bv400 32)) (_ bv0 32)))))
 (let ((?x3362 (ite (= (_ bv2 32) x_plus_month) (ite $x2846 (_ bv31 32) (_ bv31 32)) (ite (= (_ bv1 32) x_plus_month) (ite $x2846 (_ bv0 32) (_ bv0 32)) (_ bv0 32)))))
 (let ((?x1897 (ite (= (_ bv4 32) x_plus_month) (ite $x2846 (_ bv91 32) (_ bv90 32)) (ite (= (_ bv3 32) x_plus_month) (ite $x2846 (_ bv60 32) (_ bv59 32)) ?x3362))))
 (let ((?x2115 (ite (= (_ bv6 32) x_plus_month) (ite $x2846 (_ bv152 32) (_ bv151 32)) (ite (= (_ bv5 32) x_plus_month) (ite $x2846 (_ bv121 32) (_ bv120 32)) ?x1897))))
 (let ((?x1801 (ite (= (_ bv8 32) x_plus_month) (ite $x2846 (_ bv213 32) (_ bv212 32)) (ite (= (_ bv7 32) x_plus_month) (ite $x2846 (_ bv182 32) (_ bv181 32)) ?x2115))))
 (let ((?x2760 (ite (= (_ bv10 32) x_plus_month) (ite $x2846 (_ bv274 32) (_ bv273 32)) (ite (= (_ bv9 32) x_plus_month) (ite $x2846 (_ bv244 32) (_ bv243 32)) ?x1801))))
 (let ((?x1446 (ite (= (_ bv12 32) x_plus_month) (ite $x2846 (_ bv335 32) (_ bv334 32)) (ite (= (_ bv11 32) x_plus_month) (ite $x2846 (_ bv305 32) (_ bv304 32)) ?x2760))))
 (let ((?x2229 (bvadd (bvmul (_ bv365 32) (bvsub x_plus_year (_ bv1 32))) (bvsdiv (bvsub x_plus_year (_ bv1 32)) (_ bv4 32)))))
 (let ((?x3813 (bvadd (bvsub ?x2229 (bvsdiv (bvsub x_plus_year (_ bv1 32)) (_ bv100 32))) (bvsdiv (bvsub x_plus_year (_ bv1 32)) (_ bv400 32)))))
 (= x_plus_epoch (bvsub (bvadd (bvadd ?x3813 ?x1446) (bvsub x_plus_day (_ bv1 32))) (_ bv730179 32))))))))))))))
(assert
 (let ((?x38534 (bvadd x_epoch (_ bv730179 32))))
 (let ((?x2630 (bvsmod ?x38534 (_ bv146097 32))))
 (let ((?x4324 (bvsdiv ?x2630 (_ bv36524 32))))
 (let ((?x4661 (ite (bvsle (_ bv4 32) ?x4324) (_ bv3 32) ?x4324)))
 (let ((?x4678 (bvsub ?x2630 (bvmul ?x4661 (_ bv36524 32)))))
 (let ((?x589 (bvsmod ?x4678 (_ bv1461 32))))
 (let ((?x1294 (bvsdiv ?x589 (_ bv365 32))))
 (let ((?x40515 (ite (bvsle (_ bv4 32) ?x1294) (_ bv3 32) ?x1294)))
 (let ((?x3519 (bvadd (bvadd (bvmul (bvsdiv ?x38534 (_ bv146097 32)) (_ bv400 32)) (bvmul ?x4661 (_ bv100 32))) (bvmul (bvsdiv ?x4678 (_ bv1461 32)) (_ bv4 32)))))
 (let ((?x51043 (bvadd (bvadd ?x3519 ?x40515) (_ bv1 32))))
 (let (($x3698 (or (and (= (bvsmod ?x51043 (_ bv4 32)) (_ bv0 32)) (and (distinct (bvsmod ?x51043 (_ bv100 32)) (_ bv0 32)) true)) (= (bvsmod ?x51043 (_ bv400 32)) (_ bv0 32)))))
 (let ((?x49372 (bvsub ?x589 (bvmul ?x40515 (_ bv365 32)))))
 (let ((?x42689 (ite $x3698 (_ bv31 32) (_ bv31 32))))
 (let (($x3604 (bvsge ?x49372 ?x42689)))
 (let ((?x2598 (ite $x3604 (bvadd (bvsub ?x49372 ?x42689) (_ bv1 32)) (bvadd (bvsub ?x49372 (ite $x3698 (_ bv0 32) (_ bv0 32))) (_ bv1 32)))))
 (let ((?x1479 (ite $x3698 (_ bv60 32) (_ bv59 32))))
 (let (($x2217 (bvsge ?x49372 ?x1479)))
 (let ((?x2842 (ite $x3698 (_ bv91 32) (_ bv90 32))))
 (let (($x2102 (bvsge ?x49372 ?x2842)))
 (let ((?x2252 (ite $x2102 (bvadd (bvsub ?x49372 ?x2842) (_ bv1 32)) (ite $x2217 (bvadd (bvsub ?x49372 ?x1479) (_ bv1 32)) ?x2598))))
 (let ((?x5872 (ite $x3698 (_ bv121 32) (_ bv120 32))))
 (let (($x3525 (bvsge ?x49372 ?x5872)))
 (let ((?x4776 (ite $x3698 (_ bv152 32) (_ bv151 32))))
 (let (($x1713 (bvsge ?x49372 ?x4776)))
 (let ((?x1689 (ite $x1713 (bvadd (bvsub ?x49372 ?x4776) (_ bv1 32)) (ite $x3525 (bvadd (bvsub ?x49372 ?x5872) (_ bv1 32)) ?x2252))))
 (let ((?x4238 (ite $x3698 (_ bv182 32) (_ bv181 32))))
 (let (($x763 (bvsge ?x49372 ?x4238)))
 (let ((?x38093 (ite $x3698 (_ bv213 32) (_ bv212 32))))
 (let (($x412 (bvsge ?x49372 ?x38093)))
 (let ((?x1226 (ite $x412 (bvadd (bvsub ?x49372 ?x38093) (_ bv1 32)) (ite $x763 (bvadd (bvsub ?x49372 ?x4238) (_ bv1 32)) ?x1689))))
 (let ((?x38040 (ite $x3698 (_ bv244 32) (_ bv243 32))))
 (let (($x578 (bvsge ?x49372 ?x38040)))
 (let ((?x1016 (ite $x3698 (_ bv274 32) (_ bv273 32))))
 (let (($x2125 (bvsge ?x49372 ?x1016)))
 (let ((?x1751 (ite $x2125 (bvadd (bvsub ?x49372 ?x1016) (_ bv1 32)) (ite $x578 (bvadd (bvsub ?x49372 ?x38040) (_ bv1 32)) ?x1226))))
 (let ((?x1414 (ite $x3698 (_ bv305 32) (_ bv304 32))))
 (let (($x1691 (bvsge ?x49372 ?x1414)))
 (let ((?x3275 (ite $x3698 (_ bv335 32) (_ bv334 32))))
 (let (($x2413 (bvsge ?x49372 ?x3275)))
 (let ((?x2270 (ite $x2413 (bvadd (bvsub ?x49372 ?x3275) (_ bv1 32)) (ite $x1691 (bvadd (bvsub ?x49372 ?x1414) (_ bv1 32)) ?x1751))))
 (let ((?x3159 (bvmul (_ bv0 32) (_ bv12 32))))
 (let ((?x4299 (bvadd ?x3159 (_ bv13 32))))
 (let ((?x634 (ite $x1713 (_ bv6 32) (ite $x3525 (_ bv5 32) (ite $x2102 (_ bv4 32) (ite $x2217 (_ bv3 32) (ite $x3604 (_ bv2 32) (_ bv1 32))))))))
 (let ((?x1635 (ite $x1691 (_ bv11 32) (ite $x2125 (_ bv10 32) (ite $x578 (_ bv9 32) (ite $x412 (_ bv8 32) (ite $x763 (_ bv7 32) ?x634)))))))
 (let ((?x3109 (ite $x2413 (_ bv12 32) ?x1635)))
 (let ((?x19322 (bvadd ?x3109 ?x4299)))
 (let ((?x8519 (bvsub (ite (bvuge ?x19322 (_ bv2147483648 32)) (bvsub ?x19322 (_ bv0 32)) ?x19322) (_ bv1 32))))
 (let ((?x1889 (bvsmod ?x8519 (_ bv12 32))))
 (let ((?x58329 (bvadd ?x1889 (_ bv1 32))))
 (let ((?x23118 (ite (or (= ?x58329 (_ bv4 32)) (= ?x58329 (_ bv6 32)) (= ?x58329 (_ bv9 32)) (= ?x58329 (_ bv11 32))) (_ bv30 32) (_ bv31 32))))
 (let ((?x13850 (bvsdiv ?x8519 (_ bv12 32))))
 (let ((?x61771 (ite (and (bvuge ?x8519 (_ bv2147483648 32)) (and (distinct (_ bv0 32) ?x1889) true)) (bvsub ?x13850 (_ bv1 32)) ?x13850)))
 (let ((?x58727 (bvadd (_ bv0 32) ?x61771)))
 (let ((?x8551 (bvadd ?x51043 ?x58727)))
 (let (($x4658 (or (and (= (bvsmod ?x8551 (_ bv4 32)) (_ bv0 32)) (and (distinct (bvsmod ?x8551 (_ bv100 32)) (_ bv0 32)) true)) (= (bvsmod ?x8551 (_ bv400 32)) (_ bv0 32)))))
 (let ((?x21360 (ite (= ?x58329 (_ bv2 32)) (ite $x4658 (_ bv29 32) (_ bv28 32)) ?x23118)))
 (let (($x2430 (bvsgt (_ bv1 32) ?x2270)))
 (let ((?x81697 (ite $x2430 (_ bv1 32) (ite (bvsgt ?x2270 ?x21360) ?x21360 ?x2270))))
 (let ((?x449 (ite (bvsgt (_ bv1 32) ?x81697) (_ bv1 32) (ite (bvsgt ?x81697 ?x21360) ?x21360 ?x81697))))
 (let ((?x25250 (ite (= (_ bv2 32) ?x58329) (ite $x4658 (_ bv31 32) (_ bv31 32)) (ite (= (_ bv1 32) ?x58329) (ite $x4658 (_ bv0 32) (_ bv0 32)) (_ bv0 32)))))
 (let ((?x42510 (ite (= (_ bv4 32) ?x58329) (ite $x4658 (_ bv91 32) (_ bv90 32)) (ite (= (_ bv3 32) ?x58329) (ite $x4658 (_ bv60 32) (_ bv59 32)) ?x25250))))
 (let ((?x81757 (ite (= (_ bv6 32) ?x58329) (ite $x4658 (_ bv152 32) (_ bv151 32)) (ite (= (_ bv5 32) ?x58329) (ite $x4658 (_ bv121 32) (_ bv120 32)) ?x42510))))
 (let ((?x81686 (ite (= (_ bv8 32) ?x58329) (ite $x4658 (_ bv213 32) (_ bv212 32)) (ite (= (_ bv7 32) ?x58329) (ite $x4658 (_ bv182 32) (_ bv181 32)) ?x81757))))
 (let ((?x5674 (ite (= (_ bv10 32) ?x58329) (ite $x4658 (_ bv274 32) (_ bv273 32)) (ite (= (_ bv9 32) ?x58329) (ite $x4658 (_ bv244 32) (_ bv243 32)) ?x81686))))
 (let ((?x81776 (ite (= (_ bv12 32) ?x58329) (ite $x4658 (_ bv335 32) (_ bv334 32)) (ite (= (_ bv11 32) ?x58329) (ite $x4658 (_ bv305 32) (_ bv304 32)) ?x5674))))
 (let ((?x9106 (bvadd (bvmul (_ bv365 32) (bvsub ?x8551 (_ bv1 32))) (bvsdiv (bvsub ?x8551 (_ bv1 32)) (_ bv4 32)))))
 (let ((?x23202 (bvadd (bvsub ?x9106 (bvsdiv (bvsub ?x8551 (_ bv1 32)) (_ bv100 32))) (bvsdiv (bvsub ?x8551 (_ bv1 32)) (_ bv400 32)))))
 (let ((?x5700 (bvadd (bvadd (bvsub (bvadd (bvadd ?x23202 ?x81776) (bvsub ?x449 (_ bv1 32))) (_ bv730179 32)) (_ bv40 32)) (_ bv730179 32))))
 (let ((?x28585 (bvsmod ?x5700 (_ bv146097 32))))
 (let ((?x2461 (bvsdiv ?x28585 (_ bv36524 32))))
 (let ((?x29059 (ite (bvsle (_ bv4 32) ?x2461) (_ bv3 32) ?x2461)))
 (let ((?x57792 (bvsub ?x28585 (bvmul ?x29059 (_ bv36524 32)))))
 (let ((?x1287 (bvsmod ?x57792 (_ bv1461 32))))
 (let ((?x81846 (bvsdiv ?x1287 (_ bv365 32))))
 (let ((?x61937 (ite (bvsle (_ bv4 32) ?x81846) (_ bv3 32) ?x81846)))
 (let ((?x4739 (bvadd (bvadd (bvmul (bvsdiv ?x5700 (_ bv146097 32)) (_ bv400 32)) (bvmul ?x29059 (_ bv100 32))) (bvmul (bvsdiv ?x57792 (_ bv1461 32)) (_ bv4 32)))))
 (let ((?x8247 (bvadd (bvadd ?x4739 ?x61937) (_ bv1 32))))
 (let (($x18681 (= (_ bv40 32) (_ bv0 32))))
 (let ((?x81966 (ite $x18681 ?x8551 ?x8247)))
 (= x_plus_year ?x81966)))))))))))))))))))))))))))))))))))))))))))))))))))))))))))))))))))))))))))))))))
(assert
 (let ((?x38534 (bvadd x_epoch (_ bv730179 32))))
 (let ((?x2630 (bvsmod ?x38534 (_ bv146097 32))))
 (let ((?x4324 (bvsdiv ?x2630 (_ bv36524 32))))
 (let ((?x4661 (ite (bvsle (_ bv4 32) ?x4324) (_ bv3 32) ?x4324)))
 (let ((?x4678 (bvsub ?x2630 (bvmul ?x4661 (_ bv36524 32)))))
 (let ((?x589 (bvsmod ?x4678 (_ bv1461 32))))
 (let ((?x1294 (bvsdiv ?x589 (_ bv365 32))))
 (let ((?x40515 (ite (bvsle (_ bv4 32) ?x1294) (_ bv3 32) ?x1294)))
 (let ((?x3519 (bvadd (bvadd (bvmul (bvsdiv ?x38534 (_ bv146097 32)) (_ bv400 32)) (bvmul ?x4661 (_ bv100 32))) (bvmul (bvsdiv ?x4678 (_ bv1461 32)) (_ bv4 32)))))
 (let ((?x51043 (bvadd (bvadd ?x3519 ?x40515) (_ bv1 32))))
 (let (($x3698 (or (and (= (bvsmod ?x51043 (_ bv4 32)) (_ bv0 32)) (and (distinct (bvsmod ?x51043 (_ bv100 32)) (_ bv0 32)) true)) (= (bvsmod ?x51043 (_ bv400 32)) (_ bv0 32)))))
 (let ((?x49372 (bvsub ?x589 (bvmul ?x40515 (_ bv365 32)))))
 (let ((?x42689 (ite $x3698 (_ bv31 32) (_ bv31 32))))
 (let (($x3604 (bvsge ?x49372 ?x42689)))
 (let ((?x2598 (ite $x3604 (bvadd (bvsub ?x49372 ?x42689) (_ bv1 32)) (bvadd (bvsub ?x49372 (ite $x3698 (_ bv0 32) (_ bv0 32))) (_ bv1 32)))))
 (let ((?x1479 (ite $x3698 (_ bv60 32) (_ bv59 32))))
 (let (($x2217 (bvsge ?x49372 ?x1479)))
 (let ((?x2842 (ite $x3698 (_ bv91 32) (_ bv90 32))))
 (let (($x2102 (bvsge ?x49372 ?x2842)))
 (let ((?x2252 (ite $x2102 (bvadd (bvsub ?x49372 ?x2842) (_ bv1 32)) (ite $x2217 (bvadd (bvsub ?x49372 ?x1479) (_ bv1 32)) ?x2598))))
 (let ((?x5872 (ite $x3698 (_ bv121 32) (_ bv120 32))))
 (let (($x3525 (bvsge ?x49372 ?x5872)))
 (let ((?x4776 (ite $x3698 (_ bv152 32) (_ bv151 32))))
 (let (($x1713 (bvsge ?x49372 ?x4776)))
 (let ((?x1689 (ite $x1713 (bvadd (bvsub ?x49372 ?x4776) (_ bv1 32)) (ite $x3525 (bvadd (bvsub ?x49372 ?x5872) (_ bv1 32)) ?x2252))))
 (let ((?x4238 (ite $x3698 (_ bv182 32) (_ bv181 32))))
 (let (($x763 (bvsge ?x49372 ?x4238)))
 (let ((?x38093 (ite $x3698 (_ bv213 32) (_ bv212 32))))
 (let (($x412 (bvsge ?x49372 ?x38093)))
 (let ((?x1226 (ite $x412 (bvadd (bvsub ?x49372 ?x38093) (_ bv1 32)) (ite $x763 (bvadd (bvsub ?x49372 ?x4238) (_ bv1 32)) ?x1689))))
 (let ((?x38040 (ite $x3698 (_ bv244 32) (_ bv243 32))))
 (let (($x578 (bvsge ?x49372 ?x38040)))
 (let ((?x1016 (ite $x3698 (_ bv274 32) (_ bv273 32))))
 (let (($x2125 (bvsge ?x49372 ?x1016)))
 (let ((?x1751 (ite $x2125 (bvadd (bvsub ?x49372 ?x1016) (_ bv1 32)) (ite $x578 (bvadd (bvsub ?x49372 ?x38040) (_ bv1 32)) ?x1226))))
 (let ((?x1414 (ite $x3698 (_ bv305 32) (_ bv304 32))))
 (let (($x1691 (bvsge ?x49372 ?x1414)))
 (let ((?x3275 (ite $x3698 (_ bv335 32) (_ bv334 32))))
 (let (($x2413 (bvsge ?x49372 ?x3275)))
 (let ((?x2270 (ite $x2413 (bvadd (bvsub ?x49372 ?x3275) (_ bv1 32)) (ite $x1691 (bvadd (bvsub ?x49372 ?x1414) (_ bv1 32)) ?x1751))))
 (let ((?x3159 (bvmul (_ bv0 32) (_ bv12 32))))
 (let ((?x4299 (bvadd ?x3159 (_ bv13 32))))
 (let ((?x634 (ite $x1713 (_ bv6 32) (ite $x3525 (_ bv5 32) (ite $x2102 (_ bv4 32) (ite $x2217 (_ bv3 32) (ite $x3604 (_ bv2 32) (_ bv1 32))))))))
 (let ((?x1635 (ite $x1691 (_ bv11 32) (ite $x2125 (_ bv10 32) (ite $x578 (_ bv9 32) (ite $x412 (_ bv8 32) (ite $x763 (_ bv7 32) ?x634)))))))
 (let ((?x3109 (ite $x2413 (_ bv12 32) ?x1635)))
 (let ((?x19322 (bvadd ?x3109 ?x4299)))
 (let ((?x8519 (bvsub (ite (bvuge ?x19322 (_ bv2147483648 32)) (bvsub ?x19322 (_ bv0 32)) ?x19322) (_ bv1 32))))
 (let ((?x1889 (bvsmod ?x8519 (_ bv12 32))))
 (let ((?x58329 (bvadd ?x1889 (_ bv1 32))))
 (let ((?x23118 (ite (or (= ?x58329 (_ bv4 32)) (= ?x58329 (_ bv6 32)) (= ?x58329 (_ bv9 32)) (= ?x58329 (_ bv11 32))) (_ bv30 32) (_ bv31 32))))
 (let ((?x13850 (bvsdiv ?x8519 (_ bv12 32))))
 (let ((?x61771 (ite (and (bvuge ?x8519 (_ bv2147483648 32)) (and (distinct (_ bv0 32) ?x1889) true)) (bvsub ?x13850 (_ bv1 32)) ?x13850)))
 (let ((?x58727 (bvadd (_ bv0 32) ?x61771)))
 (let ((?x8551 (bvadd ?x51043 ?x58727)))
 (let (($x4658 (or (and (= (bvsmod ?x8551 (_ bv4 32)) (_ bv0 32)) (and (distinct (bvsmod ?x8551 (_ bv100 32)) (_ bv0 32)) true)) (= (bvsmod ?x8551 (_ bv400 32)) (_ bv0 32)))))
 (let ((?x21360 (ite (= ?x58329 (_ bv2 32)) (ite $x4658 (_ bv29 32) (_ bv28 32)) ?x23118)))
 (let (($x2430 (bvsgt (_ bv1 32) ?x2270)))
 (let ((?x81697 (ite $x2430 (_ bv1 32) (ite (bvsgt ?x2270 ?x21360) ?x21360 ?x2270))))
 (let ((?x449 (ite (bvsgt (_ bv1 32) ?x81697) (_ bv1 32) (ite (bvsgt ?x81697 ?x21360) ?x21360 ?x81697))))
 (let ((?x25250 (ite (= (_ bv2 32) ?x58329) (ite $x4658 (_ bv31 32) (_ bv31 32)) (ite (= (_ bv1 32) ?x58329) (ite $x4658 (_ bv0 32) (_ bv0 32)) (_ bv0 32)))))
 (let ((?x42510 (ite (= (_ bv4 32) ?x58329) (ite $x4658 (_ bv91 32) (_ bv90 32)) (ite (= (_ bv3 32) ?x58329) (ite $x4658 (_ bv60 32) (_ bv59 32)) ?x25250))))
 (let ((?x81757 (ite (= (_ bv6 32) ?x58329) (ite $x4658 (_ bv152 32) (_ bv151 32)) (ite (= (_ bv5 32) ?x58329) (ite $x4658 (_ bv121 32) (_ bv120 32)) ?x42510))))
 (let ((?x81686 (ite (= (_ bv8 32) ?x58329) (ite $x4658 (_ bv213 32) (_ bv212 32)) (ite (= (_ bv7 32) ?x58329) (ite $x4658 (_ bv182 32) (_ bv181 32)) ?x81757))))
 (let ((?x5674 (ite (= (_ bv10 32) ?x58329) (ite $x4658 (_ bv274 32) (_ bv273 32)) (ite (= (_ bv9 32) ?x58329) (ite $x4658 (_ bv244 32) (_ bv243 32)) ?x81686))))
 (let ((?x81776 (ite (= (_ bv12 32) ?x58329) (ite $x4658 (_ bv335 32) (_ bv334 32)) (ite (= (_ bv11 32) ?x58329) (ite $x4658 (_ bv305 32) (_ bv304 32)) ?x5674))))
 (let ((?x9106 (bvadd (bvmul (_ bv365 32) (bvsub ?x8551 (_ bv1 32))) (bvsdiv (bvsub ?x8551 (_ bv1 32)) (_ bv4 32)))))
 (let ((?x23202 (bvadd (bvsub ?x9106 (bvsdiv (bvsub ?x8551 (_ bv1 32)) (_ bv100 32))) (bvsdiv (bvsub ?x8551 (_ bv1 32)) (_ bv400 32)))))
 (let ((?x5700 (bvadd (bvadd (bvsub (bvadd (bvadd ?x23202 ?x81776) (bvsub ?x449 (_ bv1 32))) (_ bv730179 32)) (_ bv40 32)) (_ bv730179 32))))
 (let ((?x28585 (bvsmod ?x5700 (_ bv146097 32))))
 (let ((?x2461 (bvsdiv ?x28585 (_ bv36524 32))))
 (let ((?x29059 (ite (bvsle (_ bv4 32) ?x2461) (_ bv3 32) ?x2461)))
 (let ((?x57792 (bvsub ?x28585 (bvmul ?x29059 (_ bv36524 32)))))
 (let ((?x1287 (bvsmod ?x57792 (_ bv1461 32))))
 (let ((?x81846 (bvsdiv ?x1287 (_ bv365 32))))
 (let ((?x61937 (ite (bvsle (_ bv4 32) ?x81846) (_ bv3 32) ?x81846)))
 (let ((?x4739 (bvadd (bvadd (bvmul (bvsdiv ?x5700 (_ bv146097 32)) (_ bv400 32)) (bvmul ?x29059 (_ bv100 32))) (bvmul (bvsdiv ?x57792 (_ bv1461 32)) (_ bv4 32)))))
 (let ((?x8247 (bvadd (bvadd ?x4739 ?x61937) (_ bv1 32))))
 (let (($x57707 (or (and (= (bvsmod ?x8247 (_ bv4 32)) (_ bv0 32)) (and (distinct (bvsmod ?x8247 (_ bv100 32)) (_ bv0 32)) true)) (= (bvsmod ?x8247 (_ bv400 32)) (_ bv0 32)))))
 (let ((?x8331 (ite $x57707 (_ bv31 32) (_ bv31 32))))
 (let ((?x25819 (bvsub ?x1287 (bvmul ?x61937 (_ bv365 32)))))
 (let (($x33318 (bvsge ?x25819 ?x8331)))
 (let ((?x26205 (ite $x57707 (_ bv60 32) (_ bv59 32))))
 (let (($x81551 (bvsge ?x25819 ?x26205)))
 (let ((?x50679 (ite $x57707 (_ bv91 32) (_ bv90 32))))
 (let (($x8602 (bvsge ?x25819 ?x50679)))
 (let ((?x81770 (ite $x57707 (_ bv121 32) (_ bv120 32))))
 (let (($x8336 (bvsge ?x25819 ?x81770)))
 (let ((?x81713 (ite $x57707 (_ bv152 32) (_ bv151 32))))
 (let (($x8389 (bvsge ?x25819 ?x81713)))
 (let ((?x27672 (ite $x8389 (_ bv6 32) (ite $x8336 (_ bv5 32) (ite $x8602 (_ bv4 32) (ite $x81551 (_ bv3 32) (ite $x33318 (_ bv2 32) (_ bv1 32))))))))
 (let ((?x82541 (ite $x57707 (_ bv182 32) (_ bv181 32))))
 (let (($x3046 (bvsge ?x25819 ?x82541)))
 (let ((?x19214 (ite $x57707 (_ bv213 32) (_ bv212 32))))
 (let (($x58508 (bvsge ?x25819 ?x19214)))
 (let ((?x13702 (ite $x57707 (_ bv244 32) (_ bv243 32))))
 (let (($x58251 (bvsge ?x25819 ?x13702)))
 (let ((?x81825 (ite $x57707 (_ bv274 32) (_ bv273 32))))
 (let (($x77792 (bvsge ?x25819 ?x81825)))
 (let ((?x29243 (ite $x57707 (_ bv305 32) (_ bv304 32))))
 (let (($x6232 (bvsge ?x25819 ?x29243)))
 (let ((?x61833 (ite $x6232 (_ bv11 32) (ite $x77792 (_ bv10 32) (ite $x58251 (_ bv9 32) (ite $x58508 (_ bv8 32) (ite $x3046 (_ bv7 32) ?x27672)))))))
 (let ((?x18915 (ite $x57707 (_ bv335 32) (_ bv334 32))))
 (let (($x61749 (bvsge ?x25819 ?x18915)))
 (let ((?x81750 (ite $x61749 (_ bv12 32) ?x61833)))
 (let (($x18681 (= (_ bv40 32) (_ bv0 32))))
 (let ((?x28191 (ite $x18681 ?x58329 ?x81750)))
 (= x_plus_month ?x28191))))))))))))))))))))))))))))))))))))))))))))))))))))))))))))))))))))))))))))))))))))))))))))))))))))))))))))
(assert
 (let ((?x38534 (bvadd x_epoch (_ bv730179 32))))
 (let ((?x2630 (bvsmod ?x38534 (_ bv146097 32))))
 (let ((?x4324 (bvsdiv ?x2630 (_ bv36524 32))))
 (let ((?x4661 (ite (bvsle (_ bv4 32) ?x4324) (_ bv3 32) ?x4324)))
 (let ((?x4678 (bvsub ?x2630 (bvmul ?x4661 (_ bv36524 32)))))
 (let ((?x589 (bvsmod ?x4678 (_ bv1461 32))))
 (let ((?x1294 (bvsdiv ?x589 (_ bv365 32))))
 (let ((?x40515 (ite (bvsle (_ bv4 32) ?x1294) (_ bv3 32) ?x1294)))
 (let ((?x3519 (bvadd (bvadd (bvmul (bvsdiv ?x38534 (_ bv146097 32)) (_ bv400 32)) (bvmul ?x4661 (_ bv100 32))) (bvmul (bvsdiv ?x4678 (_ bv1461 32)) (_ bv4 32)))))
 (let ((?x51043 (bvadd (bvadd ?x3519 ?x40515) (_ bv1 32))))
 (let (($x3698 (or (and (= (bvsmod ?x51043 (_ bv4 32)) (_ bv0 32)) (and (distinct (bvsmod ?x51043 (_ bv100 32)) (_ bv0 32)) true)) (= (bvsmod ?x51043 (_ bv400 32)) (_ bv0 32)))))
 (let ((?x49372 (bvsub ?x589 (bvmul ?x40515 (_ bv365 32)))))
 (let ((?x42689 (ite $x3698 (_ bv31 32) (_ bv31 32))))
 (let (($x3604 (bvsge ?x49372 ?x42689)))
 (let ((?x2598 (ite $x3604 (bvadd (bvsub ?x49372 ?x42689) (_ bv1 32)) (bvadd (bvsub ?x49372 (ite $x3698 (_ bv0 32) (_ bv0 32))) (_ bv1 32)))))
 (let ((?x1479 (ite $x3698 (_ bv60 32) (_ bv59 32))))
 (let (($x2217 (bvsge ?x49372 ?x1479)))
 (let ((?x2842 (ite $x3698 (_ bv91 32) (_ bv90 32))))
 (let (($x2102 (bvsge ?x49372 ?x2842)))
 (let ((?x2252 (ite $x2102 (bvadd (bvsub ?x49372 ?x2842) (_ bv1 32)) (ite $x2217 (bvadd (bvsub ?x49372 ?x1479) (_ bv1 32)) ?x2598))))
 (let ((?x5872 (ite $x3698 (_ bv121 32) (_ bv120 32))))
 (let (($x3525 (bvsge ?x49372 ?x5872)))
 (let ((?x4776 (ite $x3698 (_ bv152 32) (_ bv151 32))))
 (let (($x1713 (bvsge ?x49372 ?x4776)))
 (let ((?x1689 (ite $x1713 (bvadd (bvsub ?x49372 ?x4776) (_ bv1 32)) (ite $x3525 (bvadd (bvsub ?x49372 ?x5872) (_ bv1 32)) ?x2252))))
 (let ((?x4238 (ite $x3698 (_ bv182 32) (_ bv181 32))))
 (let (($x763 (bvsge ?x49372 ?x4238)))
 (let ((?x38093 (ite $x3698 (_ bv213 32) (_ bv212 32))))
 (let (($x412 (bvsge ?x49372 ?x38093)))
 (let ((?x1226 (ite $x412 (bvadd (bvsub ?x49372 ?x38093) (_ bv1 32)) (ite $x763 (bvadd (bvsub ?x49372 ?x4238) (_ bv1 32)) ?x1689))))
 (let ((?x38040 (ite $x3698 (_ bv244 32) (_ bv243 32))))
 (let (($x578 (bvsge ?x49372 ?x38040)))
 (let ((?x1016 (ite $x3698 (_ bv274 32) (_ bv273 32))))
 (let (($x2125 (bvsge ?x49372 ?x1016)))
 (let ((?x1751 (ite $x2125 (bvadd (bvsub ?x49372 ?x1016) (_ bv1 32)) (ite $x578 (bvadd (bvsub ?x49372 ?x38040) (_ bv1 32)) ?x1226))))
 (let ((?x1414 (ite $x3698 (_ bv305 32) (_ bv304 32))))
 (let (($x1691 (bvsge ?x49372 ?x1414)))
 (let ((?x3275 (ite $x3698 (_ bv335 32) (_ bv334 32))))
 (let (($x2413 (bvsge ?x49372 ?x3275)))
 (let ((?x2270 (ite $x2413 (bvadd (bvsub ?x49372 ?x3275) (_ bv1 32)) (ite $x1691 (bvadd (bvsub ?x49372 ?x1414) (_ bv1 32)) ?x1751))))
 (let ((?x3159 (bvmul (_ bv0 32) (_ bv12 32))))
 (let ((?x4299 (bvadd ?x3159 (_ bv13 32))))
 (let ((?x634 (ite $x1713 (_ bv6 32) (ite $x3525 (_ bv5 32) (ite $x2102 (_ bv4 32) (ite $x2217 (_ bv3 32) (ite $x3604 (_ bv2 32) (_ bv1 32))))))))
 (let ((?x1635 (ite $x1691 (_ bv11 32) (ite $x2125 (_ bv10 32) (ite $x578 (_ bv9 32) (ite $x412 (_ bv8 32) (ite $x763 (_ bv7 32) ?x634)))))))
 (let ((?x3109 (ite $x2413 (_ bv12 32) ?x1635)))
 (let ((?x19322 (bvadd ?x3109 ?x4299)))
 (let ((?x8519 (bvsub (ite (bvuge ?x19322 (_ bv2147483648 32)) (bvsub ?x19322 (_ bv0 32)) ?x19322) (_ bv1 32))))
 (let ((?x1889 (bvsmod ?x8519 (_ bv12 32))))
 (let ((?x58329 (bvadd ?x1889 (_ bv1 32))))
 (let ((?x23118 (ite (or (= ?x58329 (_ bv4 32)) (= ?x58329 (_ bv6 32)) (= ?x58329 (_ bv9 32)) (= ?x58329 (_ bv11 32))) (_ bv30 32) (_ bv31 32))))
 (let ((?x13850 (bvsdiv ?x8519 (_ bv12 32))))
 (let ((?x61771 (ite (and (bvuge ?x8519 (_ bv2147483648 32)) (and (distinct (_ bv0 32) ?x1889) true)) (bvsub ?x13850 (_ bv1 32)) ?x13850)))
 (let ((?x58727 (bvadd (_ bv0 32) ?x61771)))
 (let ((?x8551 (bvadd ?x51043 ?x58727)))
 (let (($x4658 (or (and (= (bvsmod ?x8551 (_ bv4 32)) (_ bv0 32)) (and (distinct (bvsmod ?x8551 (_ bv100 32)) (_ bv0 32)) true)) (= (bvsmod ?x8551 (_ bv400 32)) (_ bv0 32)))))
 (let ((?x21360 (ite (= ?x58329 (_ bv2 32)) (ite $x4658 (_ bv29 32) (_ bv28 32)) ?x23118)))
 (let (($x2430 (bvsgt (_ bv1 32) ?x2270)))
 (let ((?x81697 (ite $x2430 (_ bv1 32) (ite (bvsgt ?x2270 ?x21360) ?x21360 ?x2270))))
 (let ((?x449 (ite (bvsgt (_ bv1 32) ?x81697) (_ bv1 32) (ite (bvsgt ?x81697 ?x21360) ?x21360 ?x81697))))
 (let ((?x25250 (ite (= (_ bv2 32) ?x58329) (ite $x4658 (_ bv31 32) (_ bv31 32)) (ite (= (_ bv1 32) ?x58329) (ite $x4658 (_ bv0 32) (_ bv0 32)) (_ bv0 32)))))
 (let ((?x42510 (ite (= (_ bv4 32) ?x58329) (ite $x4658 (_ bv91 32) (_ bv90 32)) (ite (= (_ bv3 32) ?x58329) (ite $x4658 (_ bv60 32) (_ bv59 32)) ?x25250))))
 (let ((?x81757 (ite (= (_ bv6 32) ?x58329) (ite $x4658 (_ bv152 32) (_ bv151 32)) (ite (= (_ bv5 32) ?x58329) (ite $x4658 (_ bv121 32) (_ bv120 32)) ?x42510))))
 (let ((?x81686 (ite (= (_ bv8 32) ?x58329) (ite $x4658 (_ bv213 32) (_ bv212 32)) (ite (= (_ bv7 32) ?x58329) (ite $x4658 (_ bv182 32) (_ bv181 32)) ?x81757))))
 (let ((?x5674 (ite (= (_ bv10 32) ?x58329) (ite $x4658 (_ bv274 32) (_ bv273 32)) (ite (= (_ bv9 32) ?x58329) (ite $x4658 (_ bv244 32) (_ bv243 32)) ?x81686))))
 (let ((?x81776 (ite (= (_ bv12 32) ?x58329) (ite $x4658 (_ bv335 32) (_ bv334 32)) (ite (= (_ bv11 32) ?x58329) (ite $x4658 (_ bv305 32) (_ bv304 32)) ?x5674))))
 (let ((?x9106 (bvadd (bvmul (_ bv365 32) (bvsub ?x8551 (_ bv1 32))) (bvsdiv (bvsub ?x8551 (_ bv1 32)) (_ bv4 32)))))
 (let ((?x23202 (bvadd (bvsub ?x9106 (bvsdiv (bvsub ?x8551 (_ bv1 32)) (_ bv100 32))) (bvsdiv (bvsub ?x8551 (_ bv1 32)) (_ bv400 32)))))
 (let ((?x5700 (bvadd (bvadd (bvsub (bvadd (bvadd ?x23202 ?x81776) (bvsub ?x449 (_ bv1 32))) (_ bv730179 32)) (_ bv40 32)) (_ bv730179 32))))
 (let ((?x28585 (bvsmod ?x5700 (_ bv146097 32))))
 (let ((?x2461 (bvsdiv ?x28585 (_ bv36524 32))))
 (let ((?x29059 (ite (bvsle (_ bv4 32) ?x2461) (_ bv3 32) ?x2461)))
 (let ((?x57792 (bvsub ?x28585 (bvmul ?x29059 (_ bv36524 32)))))
 (let ((?x1287 (bvsmod ?x57792 (_ bv1461 32))))
 (let ((?x81846 (bvsdiv ?x1287 (_ bv365 32))))
 (let ((?x61937 (ite (bvsle (_ bv4 32) ?x81846) (_ bv3 32) ?x81846)))
 (let ((?x4739 (bvadd (bvadd (bvmul (bvsdiv ?x5700 (_ bv146097 32)) (_ bv400 32)) (bvmul ?x29059 (_ bv100 32))) (bvmul (bvsdiv ?x57792 (_ bv1461 32)) (_ bv4 32)))))
 (let ((?x8247 (bvadd (bvadd ?x4739 ?x61937) (_ bv1 32))))
 (let (($x57707 (or (and (= (bvsmod ?x8247 (_ bv4 32)) (_ bv0 32)) (and (distinct (bvsmod ?x8247 (_ bv100 32)) (_ bv0 32)) true)) (= (bvsmod ?x8247 (_ bv400 32)) (_ bv0 32)))))
 (let ((?x25819 (bvsub ?x1287 (bvmul ?x61937 (_ bv365 32)))))
 (let ((?x8331 (ite $x57707 (_ bv31 32) (_ bv31 32))))
 (let (($x33318 (bvsge ?x25819 ?x8331)))
 (let ((?x19183 (ite $x33318 (bvadd (bvsub ?x25819 ?x8331) (_ bv1 32)) (bvadd (bvsub ?x25819 (ite $x57707 (_ bv0 32) (_ bv0 32))) (_ bv1 32)))))
 (let ((?x26205 (ite $x57707 (_ bv60 32) (_ bv59 32))))
 (let (($x81551 (bvsge ?x25819 ?x26205)))
 (let ((?x50679 (ite $x57707 (_ bv91 32) (_ bv90 32))))
 (let (($x8602 (bvsge ?x25819 ?x50679)))
 (let ((?x21087 (ite $x8602 (bvadd (bvsub ?x25819 ?x50679) (_ bv1 32)) (ite $x81551 (bvadd (bvsub ?x25819 ?x26205) (_ bv1 32)) ?x19183))))
 (let ((?x81770 (ite $x57707 (_ bv121 32) (_ bv120 32))))
 (let (($x8336 (bvsge ?x25819 ?x81770)))
 (let ((?x81713 (ite $x57707 (_ bv152 32) (_ bv151 32))))
 (let (($x8389 (bvsge ?x25819 ?x81713)))
 (let ((?x58165 (ite $x8389 (bvadd (bvsub ?x25819 ?x81713) (_ bv1 32)) (ite $x8336 (bvadd (bvsub ?x25819 ?x81770) (_ bv1 32)) ?x21087))))
 (let ((?x82541 (ite $x57707 (_ bv182 32) (_ bv181 32))))
 (let (($x3046 (bvsge ?x25819 ?x82541)))
 (let ((?x19214 (ite $x57707 (_ bv213 32) (_ bv212 32))))
 (let (($x58508 (bvsge ?x25819 ?x19214)))
 (let ((?x51294 (ite $x58508 (bvadd (bvsub ?x25819 ?x19214) (_ bv1 32)) (ite $x3046 (bvadd (bvsub ?x25819 ?x82541) (_ bv1 32)) ?x58165))))
 (let ((?x13702 (ite $x57707 (_ bv244 32) (_ bv243 32))))
 (let (($x58251 (bvsge ?x25819 ?x13702)))
 (let ((?x81825 (ite $x57707 (_ bv274 32) (_ bv273 32))))
 (let (($x77792 (bvsge ?x25819 ?x81825)))
 (let ((?x8341 (ite $x77792 (bvadd (bvsub ?x25819 ?x81825) (_ bv1 32)) (ite $x58251 (bvadd (bvsub ?x25819 ?x13702) (_ bv1 32)) ?x51294))))
 (let ((?x29243 (ite $x57707 (_ bv305 32) (_ bv304 32))))
 (let (($x6232 (bvsge ?x25819 ?x29243)))
 (let ((?x18915 (ite $x57707 (_ bv335 32) (_ bv334 32))))
 (let (($x61749 (bvsge ?x25819 ?x18915)))
 (let ((?x81805 (ite $x61749 (bvadd (bvsub ?x25819 ?x18915) (_ bv1 32)) (ite $x6232 (bvadd (bvsub ?x25819 ?x29243) (_ bv1 32)) ?x8341))))
 (let (($x18681 (= (_ bv40 32) (_ bv0 32))))
 (let ((?x20659 (ite $x18681 ?x449 ?x81805)))
 (= x_plus_day ?x20659)))))))))))))))))))))))))))))))))))))))))))))))))))))))))))))))))))))))))))))))))))))))))))))))))))))))))))))))
(assert
 (= y_epoch x_plus_epoch))
(assert
 (not (= y_epoch (_ bv8395 32))))
(check-sat)
